p wcnf 16 59 657
657 1 2 0
657 1 16 0
657 2 4 0
657 2 6 0
657 2 8 0
657 2 12 0
657 2 14 0
657 2 15 0
657 3 9 0
657 4 8 0
657 4 11 0
657 4 12 0
657 4 15 0
657 4 16 0
657 5 8 0
657 5 9 0
657 5 10 0
657 5 11 0
657 5 12 0
657 5 14 0
657 5 15 0
657 5 16 0
657 6 7 0
657 6 10 0
657 6 15 0
657 7 12 0
657 7 13 0
657 7 15 0
657 8 14 0
657 8 15 0
657 9 12 0
657 9 13 0
657 9 15 0
657 9 16 0
657 10 13 0
657 10 14 0
657 11 13 0
657 11 14 0
657 12 13 0
657 12 15 0
657 13 14 0
657 13 15 0
657 13 16 0
41 -1 0
36 -2 0
42 -3 0
37 -4 0
35 -5 0
39 -6 0
39 -7 0
38 -8 0
37 -9 0
39 -10 0
39 -11 0
36 -12 0
35 -13 0
37 -14 0
34 -15 0
38 -16 0
